p cnf 125 889
1 2 3 4 5 0
-1 -6 0
-1 -11 0
-1 -16 0
-1 -21 0
-1 -2 0
-2 -7 0
-2 -12 0
-2 -17 0
-2 -22 0
-1 -3 0
-2 -3 0
-3 -8 0
-3 -13 0
-3 -18 0
-3 -23 0
-1 -4 0
-2 -4 0
-3 -4 0
-4 -9 0
-4 -14 0
-4 -19 0
-4 -24 0
-1 -5 0
-2 -5 0
-3 -5 0
-4 -5 0
-5 -10 0
-5 -15 0
-5 -20 0
-5 -25 0
6 7 8 9 10 0
-6 -1 0
-6 -11 0
-6 -16 0
-6 -21 0
-6 -7 0
-7 -2 0
-7 -12 0
-7 -17 0
-7 -22 0
-6 -8 0
-7 -8 0
-8 -3 0
-8 -13 0
-8 -18 0
-8 -23 0
-6 -9 0
-7 -9 0
-8 -9 0
-9 -4 0
-9 -14 0
-9 -19 0
-9 -24 0
-6 -10 0
-7 -10 0
-8 -10 0
-9 -10 0
-10 -5 0
-10 -15 0
-10 -20 0
-10 -25 0
11 12 13 14 15 0
-11 -1 0
-11 -6 0
-11 -16 0
-11 -21 0
-11 -12 0
-12 -2 0
-12 -7 0
-12 -17 0
-12 -22 0
-11 -13 0
-12 -13 0
-13 -3 0
-13 -8 0
-13 -18 0
-13 -23 0
-11 -14 0
-12 -14 0
-13 -14 0
-14 -4 0
-14 -9 0
-14 -19 0
-14 -24 0
-11 -15 0
-12 -15 0
-13 -15 0
-14 -15 0
-15 -5 0
-15 -10 0
-15 -20 0
-15 -25 0
16 17 18 19 20 0
-16 -1 0
-16 -6 0
-16 -11 0
-16 -21 0
-16 -17 0
-17 -2 0
-17 -7 0
-17 -12 0
-17 -22 0
-16 -18 0
-17 -18 0
-18 -3 0
-18 -8 0
-18 -13 0
-18 -23 0
-16 -19 0
-17 -19 0
-18 -19 0
-19 -4 0
-19 -9 0
-19 -14 0
-19 -24 0
-16 -20 0
-17 -20 0
-18 -20 0
-19 -20 0
-20 -5 0
-20 -10 0
-20 -15 0
-20 -25 0
21 22 23 24 25 0
-21 -1 0
-21 -6 0
-21 -11 0
-21 -16 0
-21 -22 0
-22 -2 0
-22 -7 0
-22 -12 0
-22 -17 0
-21 -23 0
-22 -23 0
-23 -3 0
-23 -8 0
-23 -13 0
-23 -18 0
-21 -24 0
-22 -24 0
-23 -24 0
-24 -4 0
-24 -9 0
-24 -14 0
-24 -19 0
-21 -25 0
-22 -25 0
-23 -25 0
-24 -25 0
-25 -5 0
-25 -10 0
-25 -15 0
-25 -20 0
51 52 53 54 55 0
-51 -56 0
-51 -61 0
-51 -66 0
-51 -71 0
-51 -52 0
-52 -57 0
-52 -62 0
-52 -67 0
-52 -72 0
-51 -53 0
-52 -53 0
-53 -58 0
-53 -63 0
-53 -68 0
-53 -73 0
-51 -54 0
-52 -54 0
-53 -54 0
-54 -59 0
-54 -64 0
-54 -69 0
-54 -74 0
-51 -55 0
-52 -55 0
-53 -55 0
-54 -55 0
-55 -60 0
-55 -65 0
-55 -70 0
-55 -75 0
56 57 58 59 60 0
-56 -51 0
-56 -61 0
-56 -66 0
-56 -71 0
-56 -57 0
-57 -52 0
-57 -62 0
-57 -67 0
-57 -72 0
-56 -58 0
-57 -58 0
-58 -53 0
-58 -63 0
-58 -68 0
-58 -73 0
-56 -59 0
-57 -59 0
-58 -59 0
-59 -54 0
-59 -64 0
-59 -69 0
-59 -74 0
-56 -60 0
-57 -60 0
-58 -60 0
-59 -60 0
-60 -55 0
-60 -65 0
-60 -70 0
-60 -75 0
61 62 63 64 65 0
-61 -51 0
-61 -56 0
-61 -66 0
-61 -71 0
-61 -62 0
-62 -52 0
-62 -57 0
-62 -67 0
-62 -72 0
-61 -63 0
-62 -63 0
-63 -53 0
-63 -58 0
-63 -68 0
-63 -73 0
-61 -64 0
-62 -64 0
-63 -64 0
-64 -54 0
-64 -59 0
-64 -69 0
-64 -74 0
-61 -65 0
-62 -65 0
-63 -65 0
-64 -65 0
-65 -55 0
-65 -60 0
-65 -70 0
-65 -75 0
66 67 68 69 70 0
-66 -51 0
-66 -56 0
-66 -61 0
-66 -71 0
-66 -67 0
-67 -52 0
-67 -57 0
-67 -62 0
-67 -72 0
-66 -68 0
-67 -68 0
-68 -53 0
-68 -58 0
-68 -63 0
-68 -73 0
-66 -69 0
-67 -69 0
-68 -69 0
-69 -54 0
-69 -59 0
-69 -64 0
-69 -74 0
-66 -70 0
-67 -70 0
-68 -70 0
-69 -70 0
-70 -55 0
-70 -60 0
-70 -65 0
-70 -75 0
71 72 73 74 75 0
-71 -51 0
-71 -56 0
-71 -61 0
-71 -66 0
-71 -72 0
-72 -52 0
-72 -57 0
-72 -62 0
-72 -67 0
-71 -73 0
-72 -73 0
-73 -53 0
-73 -58 0
-73 -63 0
-73 -68 0
-71 -74 0
-72 -74 0
-73 -74 0
-74 -54 0
-74 -59 0
-74 -64 0
-74 -69 0
-71 -75 0
-72 -75 0
-73 -75 0
-74 -75 0
-75 -55 0
-75 -60 0
-75 -65 0
-75 -70 0
76 77 78 79 80 0
-76 -81 0
-76 -86 0
-76 -91 0
-76 -96 0
-76 -77 0
-77 -82 0
-77 -87 0
-77 -92 0
-77 -97 0
-76 -78 0
-77 -78 0
-78 -83 0
-78 -88 0
-78 -93 0
-78 -98 0
-76 -79 0
-77 -79 0
-78 -79 0
-79 -84 0
-79 -89 0
-79 -94 0
-79 -99 0
-76 -80 0
-77 -80 0
-78 -80 0
-79 -80 0
-80 -85 0
-80 -90 0
-80 -95 0
-80 -100 0
81 82 83 84 85 0
-81 -76 0
-81 -86 0
-81 -91 0
-81 -96 0
-81 -82 0
-82 -77 0
-82 -87 0
-82 -92 0
-82 -97 0
-81 -83 0
-82 -83 0
-83 -78 0
-83 -88 0
-83 -93 0
-83 -98 0
-81 -84 0
-82 -84 0
-83 -84 0
-84 -79 0
-84 -89 0
-84 -94 0
-84 -99 0
-81 -85 0
-82 -85 0
-83 -85 0
-84 -85 0
-85 -80 0
-85 -90 0
-85 -95 0
-85 -100 0
86 87 88 89 90 0
-86 -76 0
-86 -81 0
-86 -91 0
-86 -96 0
-86 -87 0
-87 -77 0
-87 -82 0
-87 -92 0
-87 -97 0
-86 -88 0
-87 -88 0
-88 -78 0
-88 -83 0
-88 -93 0
-88 -98 0
-86 -89 0
-87 -89 0
-88 -89 0
-89 -79 0
-89 -84 0
-89 -94 0
-89 -99 0
-86 -90 0
-87 -90 0
-88 -90 0
-89 -90 0
-90 -80 0
-90 -85 0
-90 -95 0
-90 -100 0
91 92 93 94 95 0
-91 -76 0
-91 -81 0
-91 -86 0
-91 -96 0
-91 -92 0
-92 -77 0
-92 -82 0
-92 -87 0
-92 -97 0
-91 -93 0
-92 -93 0
-93 -78 0
-93 -83 0
-93 -88 0
-93 -98 0
-91 -94 0
-92 -94 0
-93 -94 0
-94 -79 0
-94 -84 0
-94 -89 0
-94 -99 0
-91 -95 0
-92 -95 0
-93 -95 0
-94 -95 0
-95 -80 0
-95 -85 0
-95 -90 0
-95 -100 0
96 97 98 99 100 0
-96 -76 0
-96 -81 0
-96 -86 0
-96 -91 0
-96 -97 0
-97 -77 0
-97 -82 0
-97 -87 0
-97 -92 0
-96 -98 0
-97 -98 0
-98 -78 0
-98 -83 0
-98 -88 0
-98 -93 0
-96 -99 0
-97 -99 0
-98 -99 0
-99 -79 0
-99 -84 0
-99 -89 0
-99 -94 0
-96 -100 0
-97 -100 0
-98 -100 0
-99 -100 0
-100 -80 0
-100 -85 0
-100 -90 0
-100 -95 0
101 102 103 104 105 0
-101 -106 0
-101 -111 0
-101 -116 0
-101 -121 0
-101 -102 0
-102 -107 0
-102 -112 0
-102 -117 0
-102 -122 0
-101 -103 0
-102 -103 0
-103 -108 0
-103 -113 0
-103 -118 0
-103 -123 0
-101 -104 0
-102 -104 0
-103 -104 0
-104 -109 0
-104 -114 0
-104 -119 0
-104 -124 0
-101 -105 0
-102 -105 0
-103 -105 0
-104 -105 0
-105 -110 0
-105 -115 0
-105 -120 0
-105 -125 0
106 107 108 109 110 0
-106 -101 0
-106 -111 0
-106 -116 0
-106 -121 0
-106 -107 0
-107 -102 0
-107 -112 0
-107 -117 0
-107 -122 0
-106 -108 0
-107 -108 0
-108 -103 0
-108 -113 0
-108 -118 0
-108 -123 0
-106 -109 0
-107 -109 0
-108 -109 0
-109 -104 0
-109 -114 0
-109 -119 0
-109 -124 0
-106 -110 0
-107 -110 0
-108 -110 0
-109 -110 0
-110 -105 0
-110 -115 0
-110 -120 0
-110 -125 0
111 112 113 114 115 0
-111 -101 0
-111 -106 0
-111 -116 0
-111 -121 0
-111 -112 0
-112 -102 0
-112 -107 0
-112 -117 0
-112 -122 0
-111 -113 0
-112 -113 0
-113 -103 0
-113 -108 0
-113 -118 0
-113 -123 0
-111 -114 0
-112 -114 0
-113 -114 0
-114 -104 0
-114 -109 0
-114 -119 0
-114 -124 0
-111 -115 0
-112 -115 0
-113 -115 0
-114 -115 0
-115 -105 0
-115 -110 0
-115 -120 0
-115 -125 0
116 117 118 119 120 0
-116 -101 0
-116 -106 0
-116 -111 0
-116 -121 0
-116 -117 0
-117 -102 0
-117 -107 0
-117 -112 0
-117 -122 0
-116 -118 0
-117 -118 0
-118 -103 0
-118 -108 0
-118 -113 0
-118 -123 0
-116 -119 0
-117 -119 0
-118 -119 0
-119 -104 0
-119 -109 0
-119 -114 0
-119 -124 0
-116 -120 0
-117 -120 0
-118 -120 0
-119 -120 0
-120 -105 0
-120 -110 0
-120 -115 0
-120 -125 0
121 122 123 124 125 0
-121 -101 0
-121 -106 0
-121 -111 0
-121 -116 0
-121 -122 0
-122 -102 0
-122 -107 0
-122 -112 0
-122 -117 0
-121 -123 0
-122 -123 0
-123 -103 0
-123 -108 0
-123 -113 0
-123 -118 0
-121 -124 0
-122 -124 0
-123 -124 0
-124 -104 0
-124 -109 0
-124 -114 0
-124 -119 0
-121 -125 0
-122 -125 0
-123 -125 0
-124 -125 0
-125 -105 0
-125 -110 0
-125 -115 0
-125 -120 0
26 27 28 29 30 0
-26 -31 0
-26 -36 0
-26 -41 0
-26 -46 0
-26 -27 0
-27 -32 0
-27 -37 0
-27 -42 0
-27 -47 0
-26 -28 0
-27 -28 0
-28 -33 0
-28 -38 0
-28 -43 0
-28 -48 0
-26 -29 0
-27 -29 0
-28 -29 0
-29 -34 0
-29 -39 0
-29 -44 0
-29 -49 0
-26 -30 0
-27 -30 0
-28 -30 0
-29 -30 0
-30 -35 0
-30 -40 0
-30 -45 0
-30 -50 0
31 32 33 34 35 0
-31 -26 0
-31 -36 0
-31 -41 0
-31 -46 0
-31 -32 0
-32 -27 0
-32 -37 0
-32 -42 0
-32 -47 0
-31 -33 0
-32 -33 0
-33 -28 0
-33 -38 0
-33 -43 0
-33 -48 0
-31 -34 0
-32 -34 0
-33 -34 0
-34 -29 0
-34 -39 0
-34 -44 0
-34 -49 0
-31 -35 0
-32 -35 0
-33 -35 0
-34 -35 0
-35 -30 0
-35 -40 0
-35 -45 0
-35 -50 0
36 37 38 39 40 0
-36 -26 0
-36 -31 0
-36 -41 0
-36 -46 0
-36 -37 0
-37 -27 0
-37 -32 0
-37 -42 0
-37 -47 0
-36 -38 0
-37 -38 0
-38 -28 0
-38 -33 0
-38 -43 0
-38 -48 0
-36 -39 0
-37 -39 0
-38 -39 0
-39 -29 0
-39 -34 0
-39 -44 0
-39 -49 0
-36 -40 0
-37 -40 0
-38 -40 0
-39 -40 0
-40 -30 0
-40 -35 0
-40 -45 0
-40 -50 0
41 42 43 44 45 0
-41 -26 0
-41 -31 0
-41 -36 0
-41 -46 0
-41 -42 0
-42 -27 0
-42 -32 0
-42 -37 0
-42 -47 0
-41 -43 0
-42 -43 0
-43 -28 0
-43 -33 0
-43 -38 0
-43 -48 0
-41 -44 0
-42 -44 0
-43 -44 0
-44 -29 0
-44 -34 0
-44 -39 0
-44 -49 0
-41 -45 0
-42 -45 0
-43 -45 0
-44 -45 0
-45 -30 0
-45 -35 0
-45 -40 0
-45 -50 0
46 47 48 49 50 0
-46 -26 0
-46 -31 0
-46 -36 0
-46 -41 0
-46 -47 0
-47 -27 0
-47 -32 0
-47 -37 0
-47 -42 0
-46 -48 0
-47 -48 0
-48 -28 0
-48 -33 0
-48 -38 0
-48 -43 0
-46 -49 0
-47 -49 0
-48 -49 0
-49 -29 0
-49 -34 0
-49 -39 0
-49 -44 0
-46 -50 0
-47 -50 0
-48 -50 0
-49 -50 0
-50 -30 0
-50 -35 0
-50 -40 0
-50 -45 0
41 0
17 0
73 0
-26 1 0
26 -1 0
-27 2 0
27 -2 0
-28 3 0
28 -3 0
-29 4 0
29 -4 0
-30 5 0
30 -5 0
-6 56 0
6 -56 0
-7 57 0
7 -57 0
-8 58 0
8 -58 0
-9 59 0
9 -59 0
-10 60 0
10 -60 0
-36 51 0
36 -51 0
-37 52 0
37 -52 0
-38 53 0
38 -53 0
-39 54 0
39 -54 0
-40 55 0
40 -55 0
-21 96 0
21 -96 0
-22 97 0
22 -97 0
-23 98 0
23 -98 0
-24 99 0
24 -99 0
-25 100 0
25 -100 0
-31 101 0
31 -101 0
-32 102 0
32 -102 0
-33 103 0
33 -103 0
-34 104 0
34 -104 0
-35 105 0
35 -105 0
-46 76 0
46 -76 0
-47 77 0
47 -77 0
-48 78 0
48 -78 0
-49 79 0
49 -79 0
-50 80 0
50 -80 0
-86 111 0
86 -111 0
-87 112 0
87 -112 0
-88 113 0
88 -113 0
-89 114 0
89 -114 0
-90 115 0
90 -115 0
-91 66 0
91 -66 0
-92 67 0
92 -67 0
-93 68 0
93 -68 0
-94 69 0
94 -69 0
-95 70 0
95 -70 0
-116 97 0
-120 99 0
-117 96 98 0
-118 97 99 0
-119 98 100 0
-81 107 0
-85 109 0
-82 106 108 0
-83 107 109 0
-84 108 110 0
-81 62 0
-85 64 0
-82 61 63 0
-83 62 64 0
-84 63 65 0
-11 -10 0
-11 -9 0
-11 -8 0
-11 -7 0
-12 -10 0
-12 -9 0
-12 -8 0
-13 -10 0
-13 -9 0
-13 -6 0
-14 -10 0
-14 -7 0
-14 -6 0
-15 -8 0
-15 -7 0
-15 -6 0